g3 0 1 0	# problem truss18bars
 102 138 1 0 84	# vars, constraints, objectives, ranges, eqns
 72 0	# nonlinear constraints, objectives
 0 0	# network constraints: nonlinear, linear
 84 0 0	# nonlinear vars in constraints, objectives, both
 0 0 0 1	# linear network variables; functions; arith, flags
 0 0 0 0 0	# discrete variables: binary, integer, nonlinear (b,c,o)
 421 18	# nonzeros in Jacobian, gradients
 0 0	# max name lengths: constraints, variables
 0 0 0 0 0	# common exprs: b,c,o,c1,o1
C0
o16
o2
o2
n27.77777777777778
v0
v72
C1
o16
o2
o2
n27.77777777777778
v1
o0
o16
v72
v74
C2
o16
o2
o2
n27.77777777777778
v2
v76
C3
o16
o2
o2
n27.77777777777778
v3
o0
o16
v76
v78
C4
o16
o2
o2
n27.77777777777778
v4
v80
C5
o16
o2
o2
n27.77777777777778
v5
o0
o16
v80
v82
C6
o16
o2
o2
n27.77777777777778
v6
o0
v73
o16
v77
C7
o16
o2
o2
n27.77777777777778
v7
o0
v75
o16
v79
C8
o16
o2
o2
n27.77777777777778
v8
o0
v75
o16
v79
C9
o16
o2
o2
n27.77777777777778
v9
o0
v79
o16
v83
C10
o16
o2
o2
n19.641855031197085
v10
o0
o2
n0.70710678118655
v72
o2
n0.70710678118655
v73
C11
o16
o2
o2
n19.641855031197085
v11
o54
4
o2
n0.70710678118655
v74
o2
n0.70710678118655
v75
o2
n-0.70710678118655
v76
o2
n-0.70710678118655
v77
C12
o16
o2
o2
n19.641855031197085
v12
o0
o2
n0.70710678118655
v76
o2
n0.70710678118655
v77
C13
o16
o2
o2
n19.641855031197085
v13
o54
4
o2
n0.70710678118655
v78
o2
n0.70710678118655
v79
o2
n-0.70710678118655
v80
o2
n-0.70710678118655
v81
C14
o16
o2
o2
n19.641855031197085
v14
o0
o2
n0.70710678118655
v76
o2
n-0.70710678118655
v77
C15
o16
o2
o2
n19.641855031197085
v15
o54
4
o2
n-0.70710678118655
v72
o2
n0.70710678118655
v73
o2
n0.70710678118655
v78
o2
n-0.70710678118655
v79
C16
o16
o2
o2
n19.641855031197085
v16
o0
o2
n0.70710678118655
v80
o2
n-0.70710678118655
v81
C17
o16
o2
o2
n19.641855031197085
v17
o54
4
o2
n-0.70710678118655
v76
o2
n0.70710678118655
v77
o2
n0.70710678118655
v82
o2
n-0.70710678118655
v83
C18
o2
v0
v18
C19
o2
v1
v19
C20
o2
v2
v20
C21
o2
v3
v21
C22
o2
v4
v22
C23
o2
v5
v23
C24
o2
v6
v24
C25
o2
v7
v25
C26
o2
v8
v26
C27
o2
v9
v27
C28
o2
v10
v28
C29
o2
v11
v29
C30
o2
v12
v30
C31
o2
v13
v31
C32
o2
v14
v32
C33
o2
v15
v33
C34
o2
v16
v34
C35
o2
v17
v35
C36
o2
v0
v36
C37
o2
v1
v37
C38
o2
v2
v38
C39
o2
v3
v39
C40
o2
v4
v40
C41
o2
v5
v41
C42
o2
v6
v42
C43
o2
v7
v43
C44
o2
v8
v44
C45
o2
v9
v45
C46
o2
v10
v46
C47
o2
v11
v47
C48
o2
v12
v48
C49
o2
v13
v49
C50
o2
v14
v50
C51
o2
v15
v51
C52
o2
v16
v52
C53
o2
v17
v53
C54
o16
o2
v0
v54
C55
o16
o2
v1
v55
C56
o16
o2
v2
v56
C57
o16
o2
v3
v57
C58
o16
o2
v4
v58
C59
o16
o2
v5
v59
C60
o16
o2
v6
v60
C61
o16
o2
v7
v61
C62
o16
o2
v8
v62
C63
o16
o2
v9
v63
C64
o16
o2
v10
v64
C65
o16
o2
v11
v65
C66
o16
o2
v12
v66
C67
o16
o2
v13
v67
C68
o16
o2
v14
v68
C69
o16
o2
v15
v69
C70
o16
o2
v16
v70
C71
o16
o2
v17
v71
C72
n0
C73
n0
C74
n0
C75
n0
C76
n0
C77
n0
C78
n0
C79
n0
C80
n0
C81
n0
C82
n0
C83
n0
C84
n0
C85
n0
C86
n0
C87
n0
C88
n0
C89
n0
C90
n0
C91
n0
C92
n0
C93
n0
C94
n0
C95
n0
C96
n0
C97
n0
C98
n0
C99
n0
C100
n0
C101
n0
C102
n0
C103
n0
C104
n0
C105
n0
C106
n0
C107
n0
C108
n0
C109
n0
C110
n0
C111
n0
C112
n0
C113
n0
C114
n0
C115
n0
C116
n0
C117
n0
C118
n0
C119
n0
C120
n0
C121
n0
C122
n0
C123
n0
C124
n0
C125
n0
C126
n0
C127
n0
C128
n0
C129
n0
C130
n0
C131
n0
C132
n0
C133
n0
C134
n0
C135
n0
C136
n0
C137
n0
O0 0
n0
x48
0 50
1 50
2 50
3 50
4 0
5 0
6 50
7 0
8 50
9 0
10 50
11 50
12 0
13 0
14 0
15 50
16 0
17 0
72 0.216
73 -0.623294
74 0.252
75 -1.08512
76 -0.072
77 -0.659294
78 -0.108
79 -1.04912
80 0
81 0
82 0
83 0
84 300
85 50
86 -100
87 -50
88 0
89 0
90 50
91 0
92 -50
93 0
94 -282.843
95 -70.7125
96 0
97 0
98 0
99 70.7125
100 0
101 0
r
4 0
4 0
4 0
4 0
4 0
4 0
4 0
4 0
4 0
4 0
4 0
4 0
4 0
4 0
4 0
4 0
4 0
4 0
1 0
1 0
1 0
1 0
1 0
1 0
1 0
1 0
1 0
1 0
1 0
1 0
1 0
1 0
1 0
1 0
1 0
1 0
1 0
1 0
1 0
1 0
1 0
1 0
1 0
1 0
1 0
1 0
1 0
1 0
1 0
1 0
1 0
1 0
1 0
1 0
1 0
1 0
1 0
1 0
1 0
1 0
1 0
1 0
1 0
1 0
1 0
1 0
1 0
1 0
1 0
1 0
1 0
1 0
4 0
4 -100
4 0
4 -100
4 0
4 0
4 0
4 0
4 0
4 0
4 0
4 0
4 20
4 20
4 20
4 20
4 20
4 20
4 20
4 20
4 20
4 20
4 20
4 20
4 20
4 20
4 20
4 20
4 20
4 20
4 20
4 20
4 20
4 20
4 20
4 20
4 20
4 20
4 20
4 20
4 20
4 20
4 20
4 20
4 20
4 20
4 20
4 20
4 0
4 0
4 0
4 0
4 0
4 0
4 0
4 0
4 0
4 0
4 0
4 0
4 0
4 0
4 0
4 0
4 0
4 0
b
2 0
2 0
2 0
2 0
2 0
2 0
2 0
2 0
2 0
2 0
2 0
2 0
2 0
2 0
2 0
2 0
2 0
2 0
3
3
3
3
3
3
3
3
3
3
3
3
3
3
3
3
3
3
3
3
3
3
3
3
3
3
3
3
3
3
3
3
3
3
3
3
3
3
3
3
3
3
3
3
3
3
3
3
3
3
3
3
3
3
3
3
3
3
3
3
3
3
3
3
3
3
3
3
3
3
3
3
3
3
3
3
3
3
3
3
3
3
3
3
k101
5
10
15
20
25
30
35
40
45
50
55
60
65
70
75
80
85
90
92
94
96
98
100
102
104
106
108
110
112
114
116
118
120
122
124
126
128
130
132
134
136
138
140
142
144
146
148
150
152
154
156
158
160
162
164
166
168
170
172
174
176
178
180
182
184
186
188
190
192
194
196
198
214
226
234
246
270
290
302
322
338
346
354
362
364
367
369
372
374
377
380
383
386
389
392
397
400
405
408
413
416
J0 3
0 0
72 0
84 1
J1 4
1 0
72 0
74 0
85 1
J2 3
2 0
76 0
86 1
J3 4
3 0
76 0
78 0
87 1
J4 3
4 0
80 0
88 1
J5 4
5 0
80 0
82 0
89 1
J6 4
6 0
73 0
77 0
90 1
J7 4
7 0
75 0
79 0
91 1
J8 4
8 0
75 0
79 0
92 1
J9 4
9 0
79 0
83 0
93 1
J10 4
10 0
72 0
73 0
94 1
J11 6
11 0
74 0
75 0
76 0
77 0
95 1
J12 4
12 0
76 0
77 0
96 1
J13 6
13 0
78 0
79 0
80 0
81 0
97 1
J14 4
14 0
76 0
77 0
98 1
J15 6
15 0
72 0
73 0
78 0
79 0
99 1
J16 4
16 0
80 0
81 0
100 1
J17 6
17 0
76 0
77 0
82 0
83 0
101 1
J18 2
0 0
18 0
J19 2
1 0
19 0
J20 2
2 0
20 0
J21 2
3 0
21 0
J22 2
4 0
22 0
J23 2
5 0
23 0
J24 2
6 0
24 0
J25 2
7 0
25 0
J26 2
8 0
26 0
J27 2
9 0
27 0
J28 2
10 0
28 0
J29 2
11 0
29 0
J30 2
12 0
30 0
J31 2
13 0
31 0
J32 2
14 0
32 0
J33 2
15 0
33 0
J34 2
16 0
34 0
J35 2
17 0
35 0
J36 2
0 0
36 0
J37 2
1 0
37 0
J38 2
2 0
38 0
J39 2
3 0
39 0
J40 2
4 0
40 0
J41 2
5 0
41 0
J42 2
6 0
42 0
J43 2
7 0
43 0
J44 2
8 0
44 0
J45 2
9 0
45 0
J46 2
10 0
46 0
J47 2
11 0
47 0
J48 2
12 0
48 0
J49 2
13 0
49 0
J50 2
14 0
50 0
J51 2
15 0
51 0
J52 2
16 0
52 0
J53 2
17 0
53 0
J54 2
0 0
54 0
J55 2
1 0
55 0
J56 2
2 0
56 0
J57 2
3 0
57 0
J58 2
4 0
58 0
J59 2
5 0
59 0
J60 2
6 0
60 0
J61 2
7 0
61 0
J62 2
8 0
62 0
J63 2
9 0
63 0
J64 2
10 0
64 0
J65 2
11 0
65 0
J66 2
12 0
66 0
J67 2
13 0
67 0
J68 2
14 0
68 0
J69 2
15 0
69 0
J70 2
16 0
70 0
J71 2
17 0
71 0
J72 4
84 1
85 -1
94 0.70710678118655
99 -0.70710678118655
J73 3
90 1
94 0.70710678118655
99 0.70710678118655
J74 2
85 1
95 0.70710678118655
J75 3
91 1
92 1
95 0.70710678118655
J76 6
86 1
87 -1
95 -0.70710678118655
96 0.70710678118655
98 0.70710678118655
101 -0.70710678118655
J77 5
90 -1
95 -0.70710678118655
96 0.70710678118655
98 -0.70710678118655
101 0.70710678118655
J78 3
87 1
97 0.70710678118655
99 0.70710678118655
J79 5
91 -1
92 -1
93 1
97 0.70710678118655
99 -0.70710678118655
J80 4
88 1
89 -1
97 -0.70710678118655
100 0.70710678118655
J81 2
97 -0.70710678118655
100 -0.70710678118655
J82 2
89 1
101 0.70710678118655
J83 2
93 -1
101 -0.70710678118655
J84 2
18 -1
72 -27.77777777777778
J85 3
19 -1
72 27.77777777777778
74 -27.77777777777778
J86 2
20 -1
76 -27.77777777777778
J87 3
21 -1
76 27.77777777777778
78 -27.77777777777778
J88 2
22 -1
80 -27.77777777777778
J89 3
23 -1
80 27.77777777777778
82 -27.77777777777778
J90 3
24 -1
73 -27.77777777777778
77 27.77777777777778
J91 3
25 -1
75 -27.77777777777778
79 27.77777777777778
J92 3
26 -1
75 -27.77777777777778
79 27.77777777777778
J93 3
27 -1
79 -27.77777777777778
83 27.77777777777778
J94 3
28 -1
72 -13.888888887642613
73 -13.888888887642613
J95 5
29 -1
74 -13.888888887642613
75 -13.888888887642613
76 13.888888887642613
77 13.888888887642613
J96 3
30 -1
76 -13.888888887642613
77 -13.888888887642613
J97 5
31 -1
78 -13.888888887642613
79 -13.888888887642613
80 13.888888887642613
81 13.888888887642613
J98 3
32 -1
76 -13.888888887642613
77 13.888888887642613
J99 5
33 -1
72 13.888888887642613
73 -13.888888887642613
78 -13.888888887642613
79 13.888888887642613
J100 3
34 -1
80 -13.888888887642613
81 13.888888887642613
J101 5
35 -1
76 13.888888887642613
77 -13.888888887642613
82 -13.888888887642613
83 13.888888887642613
J102 2
36 -1
72 27.77777777777778
J103 3
37 -1
72 -27.77777777777778
74 27.77777777777778
J104 2
38 -1
76 27.77777777777778
J105 3
39 -1
76 -27.77777777777778
78 27.77777777777778
J106 2
40 -1
80 27.77777777777778
J107 3
41 -1
80 -27.77777777777778
82 27.77777777777778
J108 3
42 -1
73 27.77777777777778
77 -27.77777777777778
J109 3
43 -1
75 27.77777777777778
79 -27.77777777777778
J110 3
44 -1
75 27.77777777777778
79 -27.77777777777778
J111 3
45 -1
79 27.77777777777778
83 -27.77777777777778
J112 3
46 -1
72 13.888888887642613
73 13.888888887642613
J113 5
47 -1
74 13.888888887642613
75 13.888888887642613
76 -13.888888887642613
77 -13.888888887642613
J114 3
48 -1
76 13.888888887642613
77 13.888888887642613
J115 5
49 -1
78 13.888888887642613
79 13.888888887642613
80 -13.888888887642613
81 -13.888888887642613
J116 3
50 -1
76 13.888888887642613
77 -13.888888887642613
J117 5
51 -1
72 -13.888888887642613
73 13.888888887642613
78 13.888888887642613
79 -13.888888887642613
J118 3
52 -1
80 13.888888887642613
81 -13.888888887642613
J119 5
53 -1
76 -13.888888887642613
77 13.888888887642613
82 13.888888887642613
83 -13.888888887642613
J120 3
0 0.06060171013869199
54 -1
72 27.77777777777778
J121 4
1 0.06060171013869199
55 -1
72 -27.77777777777778
74 27.77777777777778
J122 3
2 0.06060171013869199
56 -1
76 27.77777777777778
J123 4
3 0.06060171013869199
57 -1
76 -27.77777777777778
78 27.77777777777778
J124 3
4 0.06060171013869199
58 -1
80 27.77777777777778
J125 4
5 0.06060171013869199
59 -1
80 -27.77777777777778
82 27.77777777777778
J126 4
6 0.06060171013869199
60 -1
73 27.77777777777778
77 -27.77777777777778
J127 4
7 0.06060171013869199
61 -1
75 27.77777777777778
79 -27.77777777777778
J128 4
8 0.06060171013869199
62 -1
75 27.77777777777778
79 -27.77777777777778
J129 4
9 0.06060171013869199
63 -1
79 27.77777777777778
83 -27.77777777777778
J130 4
10 0.030300855063907887
64 -1
72 13.888888887642613
73 13.888888887642613
J131 6
11 0.030300855063907887
65 -1
74 13.888888887642613
75 13.888888887642613
76 -13.888888887642613
77 -13.888888887642613
J132 4
12 0.030300855063907887
66 -1
76 13.888888887642613
77 13.888888887642613
J133 6
13 0.030300855063907887
67 -1
78 13.888888887642613
79 13.888888887642613
80 -13.888888887642613
81 -13.888888887642613
J134 4
14 0.030300855063907887
68 -1
76 13.888888887642613
77 -13.888888887642613
J135 6
15 0.030300855063907887
69 -1
72 -13.888888887642613
73 13.888888887642613
78 13.888888887642613
79 -13.888888887642613
J136 4
16 0.030300855063907887
70 -1
80 13.888888887642613
81 -13.888888887642613
J137 6
17 0.030300855063907887
71 -1
76 -13.888888887642613
77 13.888888887642613
82 13.888888887642613
83 -13.888888887642613
G0 18
0 36
1 36
2 36
3 36
4 36
5 36
6 36
7 36
8 36
9 36
10 50.91168825
11 50.91168825
12 50.91168825
13 50.91168825
14 50.91168825
15 50.91168825
16 50.91168825
17 50.91168825
